NAME : kroE100-C-5-3-a.22455.tour
COMMENT : Length = 22455
COMMENT : Found by LKH-3 [Keld Helsgaun] Tue Jul 30 13:14:12 2024
TYPE : TOUR
DIMENSION : 100
TOUR_SECTION
1
74
21
7
76
12
32
58
63
62
50
60
10
80
57
9
31
66
30
93
91
55
13
75
41
87
67
27
92
82
4
2
11
96
85
77
37
70
6
34
53
78
100
29
24
18
94
19
86
43
39
22
33
38
68
48
90
42
5
8
65
97
25
54
45
99
40
88
35
17
84
49
56
20
15
23
64
28
36
95
59
98
51
69
47
3
46
26
79
81
89
72
44
52
14
61
71
16
73
83
-1
EOF
